
(set-option :produce-models true)
(set-option :inline-size-limit 10000)

(declare-const var0 String)

(push 1)
(assert (str.in.re var0 (re.* (re.range "\x01" "\xff"))))
(assert (str.in.re var0 (re.++ (re.++ re.begin-anchor ((_ re.capture 1) (re.++ (re.union (str.to.re " ") (re.union (str.to.re "\u{0b}") (re.union (str.to.re "\u{0a}") (re.union (str.to.re "\u{0d}") (re.union (str.to.re "\u{09}") (str.to.re "\u{0c}")))))) (re.++ ((_ re.capture 2) (re.union (re.union (re.union (re.union (re.union (re.union (re.++ (str.to.re "S") (re.++ (str.to.re "U") (str.to.re "N"))) (re.++ (str.to.re "M") (re.++ (str.to.re "O") (str.to.re "N")))) (re.++ (str.to.re "T") (re.++ (str.to.re "U") (str.to.re "E")))) (re.++ (str.to.re "W") (re.++ (str.to.re "E") (str.to.re "D")))) (re.++ (str.to.re "T") (re.++ (str.to.re "H") (str.to.re "U")))) (re.++ (str.to.re "F") (re.++ (str.to.re "R") (str.to.re "I")))) (re.++ (str.to.re "S") (re.++ (str.to.re "A") (str.to.re "T"))))) (re.++ (re.+ (re.union (str.to.re " ") (re.union (str.to.re "\u{0b}") (re.union (str.to.re "\u{0a}") (re.union (str.to.re "\u{0d}") (re.union (str.to.re "\u{09}") (str.to.re "\u{0c}"))))))) (re.++ ((_ re.capture 3) (re.union (re.union (re.union (re.union (re.union (re.union (re.union (re.union (re.union (re.union (re.union (re.++ (str.to.re "J") (re.++ (str.to.re "A") (str.to.re "N"))) (re.++ (str.to.re "F") (re.++ (str.to.re "E") (str.to.re "B")))) (re.++ (str.to.re "M") (re.++ (str.to.re "A") (str.to.re "R")))) (re.++ (str.to.re "A") (re.++ (str.to.re "P") (str.to.re "R")))) (re.++ (str.to.re "M") (re.++ (str.to.re "A") (str.to.re "Y")))) (re.++ (str.to.re "J") (re.++ (str.to.re "U") (str.to.re "N")))) (re.++ (str.to.re "J") (re.++ (str.to.re "U") (str.to.re "L")))) (re.++ (str.to.re "A") (re.++ (str.to.re "U") (str.to.re "G")))) (re.++ (str.to.re "S") (re.++ (str.to.re "E") (str.to.re "P")))) (re.++ (str.to.re "O") (re.++ (str.to.re "C") (str.to.re "T")))) (re.++ (str.to.re "N") (re.++ (str.to.re "O") (str.to.re "V")))) (re.++ (str.to.re "D") (re.++ (str.to.re "E") (str.to.re "C"))))) (re.++ (re.+ (re.union (str.to.re " ") (re.union (str.to.re "\u{0b}") (re.union (str.to.re "\u{0a}") (re.union (str.to.re "\u{0d}") (re.union (str.to.re "\u{09}") (str.to.re "\u{0c}"))))))) (re.++ ((_ re.capture 4) (re.union (re.union (re.++ (re.union (re.++ (str.to.re "") (str.to.re "0")) (str.to.re "")) (re.range "1" "9")) (re.++ (re.range "1" "2") (re.range "0" "9"))) (re.++ (str.to.re "3") (re.union (str.to.re "0") (str.to.re "1"))))) (re.++ (re.+ (re.union (str.to.re " ") (re.union (str.to.re "\u{0b}") (re.union (str.to.re "\u{0a}") (re.union (str.to.re "\u{0d}") (re.union (str.to.re "\u{09}") (str.to.re "\u{0c}"))))))) (re.++ ((_ re.capture 5) (re.union (re.++ (str.to.re "2") (re.range "0" "3")) (re.++ (re.range "0" "1") (re.range "0" "9")))) (re.++ (str.to.re ":") (re.++ ((_ re.capture 6) (re.++ (re.range "0" "5") (re.range "0" "9"))) (re.++ (str.to.re ":") (re.++ ((_ re.capture 7) ((_ re.capture 8) (re.union (re.++ (str.to.re "6") (str.to.re "0")) (re.++ (re.range "0" "5") (re.range "0" "9"))))) (re.++ (re.+ (re.union (str.to.re " ") (re.union (str.to.re "\u{0b}") (re.union (str.to.re "\u{0a}") (re.union (str.to.re "\u{0d}") (re.union (str.to.re "\u{09}") (str.to.re "\u{0c}"))))))) ((_ re.capture 9) (re.union (re.union (re.++ (str.to.re "1") (re.++ (str.to.re "9") (re.++ (re.range "0" "9") (re.range "0" "9")))) (re.++ (re.range "2" "9") (re.++ (re.range "0" "9") (re.++ (re.range "0" "9") (re.range "0" "9"))))) (re.++ (re.range "0" "9") (re.range "0" "9"))))))))))))))))))) re.end-anchor)))	; match!==null
(assert (not (str.in.re ((_ str.extract 1) var0 (re.++ (re.++ re.begin-anchor ((_ re.capture 1) (re.++ (re.union (str.to.re " ") (re.union (str.to.re "\u{0b}") (re.union (str.to.re "\u{0a}") (re.union (str.to.re "\u{0d}") (re.union (str.to.re "\u{09}") (str.to.re "\u{0c}")))))) (re.++ ((_ re.capture 2) (re.union (re.union (re.union (re.union (re.union (re.union (re.++ (str.to.re "S") (re.++ (str.to.re "U") (str.to.re "N"))) (re.++ (str.to.re "M") (re.++ (str.to.re "O") (str.to.re "N")))) (re.++ (str.to.re "T") (re.++ (str.to.re "U") (str.to.re "E")))) (re.++ (str.to.re "W") (re.++ (str.to.re "E") (str.to.re "D")))) (re.++ (str.to.re "T") (re.++ (str.to.re "H") (str.to.re "U")))) (re.++ (str.to.re "F") (re.++ (str.to.re "R") (str.to.re "I")))) (re.++ (str.to.re "S") (re.++ (str.to.re "A") (str.to.re "T"))))) (re.++ (re.+ (re.union (str.to.re " ") (re.union (str.to.re "\u{0b}") (re.union (str.to.re "\u{0a}") (re.union (str.to.re "\u{0d}") (re.union (str.to.re "\u{09}") (str.to.re "\u{0c}"))))))) (re.++ ((_ re.capture 3) (re.union (re.union (re.union (re.union (re.union (re.union (re.union (re.union (re.union (re.union (re.union (re.++ (str.to.re "J") (re.++ (str.to.re "A") (str.to.re "N"))) (re.++ (str.to.re "F") (re.++ (str.to.re "E") (str.to.re "B")))) (re.++ (str.to.re "M") (re.++ (str.to.re "A") (str.to.re "R")))) (re.++ (str.to.re "A") (re.++ (str.to.re "P") (str.to.re "R")))) (re.++ (str.to.re "M") (re.++ (str.to.re "A") (str.to.re "Y")))) (re.++ (str.to.re "J") (re.++ (str.to.re "U") (str.to.re "N")))) (re.++ (str.to.re "J") (re.++ (str.to.re "U") (str.to.re "L")))) (re.++ (str.to.re "A") (re.++ (str.to.re "U") (str.to.re "G")))) (re.++ (str.to.re "S") (re.++ (str.to.re "E") (str.to.re "P")))) (re.++ (str.to.re "O") (re.++ (str.to.re "C") (str.to.re "T")))) (re.++ (str.to.re "N") (re.++ (str.to.re "O") (str.to.re "V")))) (re.++ (str.to.re "D") (re.++ (str.to.re "E") (str.to.re "C"))))) (re.++ (re.+ (re.union (str.to.re " ") (re.union (str.to.re "\u{0b}") (re.union (str.to.re "\u{0a}") (re.union (str.to.re "\u{0d}") (re.union (str.to.re "\u{09}") (str.to.re "\u{0c}"))))))) (re.++ ((_ re.capture 4) (re.union (re.union (re.++ (re.union (re.++ (str.to.re "") (str.to.re "0")) (str.to.re "")) (re.range "1" "9")) (re.++ (re.range "1" "2") (re.range "0" "9"))) (re.++ (str.to.re "3") (re.union (str.to.re "0") (str.to.re "1"))))) (re.++ (re.+ (re.union (str.to.re " ") (re.union (str.to.re "\u{0b}") (re.union (str.to.re "\u{0a}") (re.union (str.to.re "\u{0d}") (re.union (str.to.re "\u{09}") (str.to.re "\u{0c}"))))))) (re.++ ((_ re.capture 5) (re.union (re.++ (str.to.re "2") (re.range "0" "3")) (re.++ (re.range "0" "1") (re.range "0" "9")))) (re.++ (str.to.re ":") (re.++ ((_ re.capture 6) (re.++ (re.range "0" "5") (re.range "0" "9"))) (re.++ (str.to.re ":") (re.++ ((_ re.capture 7) ((_ re.capture 8) (re.union (re.++ (str.to.re "6") (str.to.re "0")) (re.++ (re.range "0" "5") (re.range "0" "9"))))) (re.++ (re.+ (re.union (str.to.re " ") (re.union (str.to.re "\u{0b}") (re.union (str.to.re "\u{0a}") (re.union (str.to.re "\u{0d}") (re.union (str.to.re "\u{09}") (str.to.re "\u{0c}"))))))) ((_ re.capture 9) (re.union (re.union (re.++ (str.to.re "1") (re.++ (str.to.re "9") (re.++ (re.range "0" "9") (re.range "0" "9")))) (re.++ (re.range "2" "9") (re.++ (re.range "0" "9") (re.++ (re.range "0" "9") (re.range "0" "9"))))) (re.++ (re.range "0" "9") (re.range "0" "9"))))))))))))))))))) re.end-anchor)) (str.to.re "\x00"))))
;match[1]!==null
(assert (str.in.re ((_ str.extract 1) var0 (re.++ (re.++ re.begin-anchor ((_ re.capture 1) (re.++ (re.union (str.to.re " ") (re.union (str.to.re "\u{0b}") (re.union (str.to.re "\u{0a}") (re.union (str.to.re "\u{0d}") (re.union (str.to.re "\u{09}") (str.to.re "\u{0c}")))))) (re.++ ((_ re.capture 2) (re.union (re.union (re.union (re.union (re.union (re.union (re.++ (str.to.re "S") (re.++ (str.to.re "U") (str.to.re "N"))) (re.++ (str.to.re "M") (re.++ (str.to.re "O") (str.to.re "N")))) (re.++ (str.to.re "T") (re.++ (str.to.re "U") (str.to.re "E")))) (re.++ (str.to.re "W") (re.++ (str.to.re "E") (str.to.re "D")))) (re.++ (str.to.re "T") (re.++ (str.to.re "H") (str.to.re "U")))) (re.++ (str.to.re "F") (re.++ (str.to.re "R") (str.to.re "I")))) (re.++ (str.to.re "S") (re.++ (str.to.re "A") (str.to.re "T"))))) (re.++ (re.+ (re.union (str.to.re " ") (re.union (str.to.re "\u{0b}") (re.union (str.to.re "\u{0a}") (re.union (str.to.re "\u{0d}") (re.union (str.to.re "\u{09}") (str.to.re "\u{0c}"))))))) (re.++ ((_ re.capture 3) (re.union (re.union (re.union (re.union (re.union (re.union (re.union (re.union (re.union (re.union (re.union (re.++ (str.to.re "J") (re.++ (str.to.re "A") (str.to.re "N"))) (re.++ (str.to.re "F") (re.++ (str.to.re "E") (str.to.re "B")))) (re.++ (str.to.re "M") (re.++ (str.to.re "A") (str.to.re "R")))) (re.++ (str.to.re "A") (re.++ (str.to.re "P") (str.to.re "R")))) (re.++ (str.to.re "M") (re.++ (str.to.re "A") (str.to.re "Y")))) (re.++ (str.to.re "J") (re.++ (str.to.re "U") (str.to.re "N")))) (re.++ (str.to.re "J") (re.++ (str.to.re "U") (str.to.re "L")))) (re.++ (str.to.re "A") (re.++ (str.to.re "U") (str.to.re "G")))) (re.++ (str.to.re "S") (re.++ (str.to.re "E") (str.to.re "P")))) (re.++ (str.to.re "O") (re.++ (str.to.re "C") (str.to.re "T")))) (re.++ (str.to.re "N") (re.++ (str.to.re "O") (str.to.re "V")))) (re.++ (str.to.re "D") (re.++ (str.to.re "E") (str.to.re "C"))))) (re.++ (re.+ (re.union (str.to.re " ") (re.union (str.to.re "\u{0b}") (re.union (str.to.re "\u{0a}") (re.union (str.to.re "\u{0d}") (re.union (str.to.re "\u{09}") (str.to.re "\u{0c}"))))))) (re.++ ((_ re.capture 4) (re.union (re.union (re.++ (re.union (re.++ (str.to.re "") (str.to.re "0")) (str.to.re "")) (re.range "1" "9")) (re.++ (re.range "1" "2") (re.range "0" "9"))) (re.++ (str.to.re "3") (re.union (str.to.re "0") (str.to.re "1"))))) (re.++ (re.+ (re.union (str.to.re " ") (re.union (str.to.re "\u{0b}") (re.union (str.to.re "\u{0a}") (re.union (str.to.re "\u{0d}") (re.union (str.to.re "\u{09}") (str.to.re "\u{0c}"))))))) (re.++ ((_ re.capture 5) (re.union (re.++ (str.to.re "2") (re.range "0" "3")) (re.++ (re.range "0" "1") (re.range "0" "9")))) (re.++ (str.to.re ":") (re.++ ((_ re.capture 6) (re.++ (re.range "0" "5") (re.range "0" "9"))) (re.++ (str.to.re ":") (re.++ ((_ re.capture 7) ((_ re.capture 8) (re.union (re.++ (str.to.re "6") (str.to.re "0")) (re.++ (re.range "0" "5") (re.range "0" "9"))))) (re.++ (re.+ (re.union (str.to.re " ") (re.union (str.to.re "\u{0b}") (re.union (str.to.re "\u{0a}") (re.union (str.to.re "\u{0d}") (re.union (str.to.re "\u{09}") (str.to.re "\u{0c}"))))))) ((_ re.capture 9) (re.union (re.union (re.++ (str.to.re "1") (re.++ (str.to.re "9") (re.++ (re.range "0" "9") (re.range "0" "9")))) (re.++ (re.range "2" "9") (re.++ (re.range "0" "9") (re.++ (re.range "0" "9") (re.range "0" "9"))))) (re.++ (re.range "0" "9") (re.range "0" "9"))))))))))))))))))) re.end-anchor)) (re.++ re.all(re.+ (re.range "a" "z")) re.all) ))
;/[a-z]+/.test(match[1]) == true
(check-sat)
(get-model)
(pop 1)
(push 1)
(assert (str.in.re var0 (re.* (re.range "\x01" "\xff"))))
(assert (str.in.re var0 (re.++ (re.++ re.begin-anchor ((_ re.capture 1) (re.++ (re.union (str.to.re " ") (re.union (str.to.re "\u{0b}") (re.union (str.to.re "\u{0a}") (re.union (str.to.re "\u{0d}") (re.union (str.to.re "\u{09}") (str.to.re "\u{0c}")))))) (re.++ ((_ re.capture 2) (re.union (re.union (re.union (re.union (re.union (re.union (re.++ (str.to.re "S") (re.++ (str.to.re "U") (str.to.re "N"))) (re.++ (str.to.re "M") (re.++ (str.to.re "O") (str.to.re "N")))) (re.++ (str.to.re "T") (re.++ (str.to.re "U") (str.to.re "E")))) (re.++ (str.to.re "W") (re.++ (str.to.re "E") (str.to.re "D")))) (re.++ (str.to.re "T") (re.++ (str.to.re "H") (str.to.re "U")))) (re.++ (str.to.re "F") (re.++ (str.to.re "R") (str.to.re "I")))) (re.++ (str.to.re "S") (re.++ (str.to.re "A") (str.to.re "T"))))) (re.++ (re.+ (re.union (str.to.re " ") (re.union (str.to.re "\u{0b}") (re.union (str.to.re "\u{0a}") (re.union (str.to.re "\u{0d}") (re.union (str.to.re "\u{09}") (str.to.re "\u{0c}"))))))) (re.++ ((_ re.capture 3) (re.union (re.union (re.union (re.union (re.union (re.union (re.union (re.union (re.union (re.union (re.union (re.++ (str.to.re "J") (re.++ (str.to.re "A") (str.to.re "N"))) (re.++ (str.to.re "F") (re.++ (str.to.re "E") (str.to.re "B")))) (re.++ (str.to.re "M") (re.++ (str.to.re "A") (str.to.re "R")))) (re.++ (str.to.re "A") (re.++ (str.to.re "P") (str.to.re "R")))) (re.++ (str.to.re "M") (re.++ (str.to.re "A") (str.to.re "Y")))) (re.++ (str.to.re "J") (re.++ (str.to.re "U") (str.to.re "N")))) (re.++ (str.to.re "J") (re.++ (str.to.re "U") (str.to.re "L")))) (re.++ (str.to.re "A") (re.++ (str.to.re "U") (str.to.re "G")))) (re.++ (str.to.re "S") (re.++ (str.to.re "E") (str.to.re "P")))) (re.++ (str.to.re "O") (re.++ (str.to.re "C") (str.to.re "T")))) (re.++ (str.to.re "N") (re.++ (str.to.re "O") (str.to.re "V")))) (re.++ (str.to.re "D") (re.++ (str.to.re "E") (str.to.re "C"))))) (re.++ (re.+ (re.union (str.to.re " ") (re.union (str.to.re "\u{0b}") (re.union (str.to.re "\u{0a}") (re.union (str.to.re "\u{0d}") (re.union (str.to.re "\u{09}") (str.to.re "\u{0c}"))))))) (re.++ ((_ re.capture 4) (re.union (re.union (re.++ (re.union (re.++ (str.to.re "") (str.to.re "0")) (str.to.re "")) (re.range "1" "9")) (re.++ (re.range "1" "2") (re.range "0" "9"))) (re.++ (str.to.re "3") (re.union (str.to.re "0") (str.to.re "1"))))) (re.++ (re.+ (re.union (str.to.re " ") (re.union (str.to.re "\u{0b}") (re.union (str.to.re "\u{0a}") (re.union (str.to.re "\u{0d}") (re.union (str.to.re "\u{09}") (str.to.re "\u{0c}"))))))) (re.++ ((_ re.capture 5) (re.union (re.++ (str.to.re "2") (re.range "0" "3")) (re.++ (re.range "0" "1") (re.range "0" "9")))) (re.++ (str.to.re ":") (re.++ ((_ re.capture 6) (re.++ (re.range "0" "5") (re.range "0" "9"))) (re.++ (str.to.re ":") (re.++ ((_ re.capture 7) ((_ re.capture 8) (re.union (re.++ (str.to.re "6") (str.to.re "0")) (re.++ (re.range "0" "5") (re.range "0" "9"))))) (re.++ (re.+ (re.union (str.to.re " ") (re.union (str.to.re "\u{0b}") (re.union (str.to.re "\u{0a}") (re.union (str.to.re "\u{0d}") (re.union (str.to.re "\u{09}") (str.to.re "\u{0c}"))))))) ((_ re.capture 9) (re.union (re.union (re.++ (str.to.re "1") (re.++ (str.to.re "9") (re.++ (re.range "0" "9") (re.range "0" "9")))) (re.++ (re.range "2" "9") (re.++ (re.range "0" "9") (re.++ (re.range "0" "9") (re.range "0" "9"))))) (re.++ (re.range "0" "9") (re.range "0" "9"))))))))))))))))))) re.end-anchor)))	; match!==null
(assert (not (str.in.re ((_ str.extract 1) var0 (re.++ (re.++ re.begin-anchor ((_ re.capture 1) (re.++ (re.union (str.to.re " ") (re.union (str.to.re "\u{0b}") (re.union (str.to.re "\u{0a}") (re.union (str.to.re "\u{0d}") (re.union (str.to.re "\u{09}") (str.to.re "\u{0c}")))))) (re.++ ((_ re.capture 2) (re.union (re.union (re.union (re.union (re.union (re.union (re.++ (str.to.re "S") (re.++ (str.to.re "U") (str.to.re "N"))) (re.++ (str.to.re "M") (re.++ (str.to.re "O") (str.to.re "N")))) (re.++ (str.to.re "T") (re.++ (str.to.re "U") (str.to.re "E")))) (re.++ (str.to.re "W") (re.++ (str.to.re "E") (str.to.re "D")))) (re.++ (str.to.re "T") (re.++ (str.to.re "H") (str.to.re "U")))) (re.++ (str.to.re "F") (re.++ (str.to.re "R") (str.to.re "I")))) (re.++ (str.to.re "S") (re.++ (str.to.re "A") (str.to.re "T"))))) (re.++ (re.+ (re.union (str.to.re " ") (re.union (str.to.re "\u{0b}") (re.union (str.to.re "\u{0a}") (re.union (str.to.re "\u{0d}") (re.union (str.to.re "\u{09}") (str.to.re "\u{0c}"))))))) (re.++ ((_ re.capture 3) (re.union (re.union (re.union (re.union (re.union (re.union (re.union (re.union (re.union (re.union (re.union (re.++ (str.to.re "J") (re.++ (str.to.re "A") (str.to.re "N"))) (re.++ (str.to.re "F") (re.++ (str.to.re "E") (str.to.re "B")))) (re.++ (str.to.re "M") (re.++ (str.to.re "A") (str.to.re "R")))) (re.++ (str.to.re "A") (re.++ (str.to.re "P") (str.to.re "R")))) (re.++ (str.to.re "M") (re.++ (str.to.re "A") (str.to.re "Y")))) (re.++ (str.to.re "J") (re.++ (str.to.re "U") (str.to.re "N")))) (re.++ (str.to.re "J") (re.++ (str.to.re "U") (str.to.re "L")))) (re.++ (str.to.re "A") (re.++ (str.to.re "U") (str.to.re "G")))) (re.++ (str.to.re "S") (re.++ (str.to.re "E") (str.to.re "P")))) (re.++ (str.to.re "O") (re.++ (str.to.re "C") (str.to.re "T")))) (re.++ (str.to.re "N") (re.++ (str.to.re "O") (str.to.re "V")))) (re.++ (str.to.re "D") (re.++ (str.to.re "E") (str.to.re "C"))))) (re.++ (re.+ (re.union (str.to.re " ") (re.union (str.to.re "\u{0b}") (re.union (str.to.re "\u{0a}") (re.union (str.to.re "\u{0d}") (re.union (str.to.re "\u{09}") (str.to.re "\u{0c}"))))))) (re.++ ((_ re.capture 4) (re.union (re.union (re.++ (re.union (re.++ (str.to.re "") (str.to.re "0")) (str.to.re "")) (re.range "1" "9")) (re.++ (re.range "1" "2") (re.range "0" "9"))) (re.++ (str.to.re "3") (re.union (str.to.re "0") (str.to.re "1"))))) (re.++ (re.+ (re.union (str.to.re " ") (re.union (str.to.re "\u{0b}") (re.union (str.to.re "\u{0a}") (re.union (str.to.re "\u{0d}") (re.union (str.to.re "\u{09}") (str.to.re "\u{0c}"))))))) (re.++ ((_ re.capture 5) (re.union (re.++ (str.to.re "2") (re.range "0" "3")) (re.++ (re.range "0" "1") (re.range "0" "9")))) (re.++ (str.to.re ":") (re.++ ((_ re.capture 6) (re.++ (re.range "0" "5") (re.range "0" "9"))) (re.++ (str.to.re ":") (re.++ ((_ re.capture 7) ((_ re.capture 8) (re.union (re.++ (str.to.re "6") (str.to.re "0")) (re.++ (re.range "0" "5") (re.range "0" "9"))))) (re.++ (re.+ (re.union (str.to.re " ") (re.union (str.to.re "\u{0b}") (re.union (str.to.re "\u{0a}") (re.union (str.to.re "\u{0d}") (re.union (str.to.re "\u{09}") (str.to.re "\u{0c}"))))))) ((_ re.capture 9) (re.union (re.union (re.++ (str.to.re "1") (re.++ (str.to.re "9") (re.++ (re.range "0" "9") (re.range "0" "9")))) (re.++ (re.range "2" "9") (re.++ (re.range "0" "9") (re.++ (re.range "0" "9") (re.range "0" "9"))))) (re.++ (re.range "0" "9") (re.range "0" "9"))))))))))))))))))) re.end-anchor)) (str.to.re "\x00"))))	
;match[1]!==null
(assert (not (str.in.re ((_ str.extract 1) var0 (re.++ (re.++ re.begin-anchor ((_ re.capture 1) (re.++ (re.union (str.to.re " ") (re.union (str.to.re "\u{0b}") (re.union (str.to.re "\u{0a}") (re.union (str.to.re "\u{0d}") (re.union (str.to.re "\u{09}") (str.to.re "\u{0c}")))))) (re.++ ((_ re.capture 2) (re.union (re.union (re.union (re.union (re.union (re.union (re.++ (str.to.re "S") (re.++ (str.to.re "U") (str.to.re "N"))) (re.++ (str.to.re "M") (re.++ (str.to.re "O") (str.to.re "N")))) (re.++ (str.to.re "T") (re.++ (str.to.re "U") (str.to.re "E")))) (re.++ (str.to.re "W") (re.++ (str.to.re "E") (str.to.re "D")))) (re.++ (str.to.re "T") (re.++ (str.to.re "H") (str.to.re "U")))) (re.++ (str.to.re "F") (re.++ (str.to.re "R") (str.to.re "I")))) (re.++ (str.to.re "S") (re.++ (str.to.re "A") (str.to.re "T"))))) (re.++ (re.+ (re.union (str.to.re " ") (re.union (str.to.re "\u{0b}") (re.union (str.to.re "\u{0a}") (re.union (str.to.re "\u{0d}") (re.union (str.to.re "\u{09}") (str.to.re "\u{0c}"))))))) (re.++ ((_ re.capture 3) (re.union (re.union (re.union (re.union (re.union (re.union (re.union (re.union (re.union (re.union (re.union (re.++ (str.to.re "J") (re.++ (str.to.re "A") (str.to.re "N"))) (re.++ (str.to.re "F") (re.++ (str.to.re "E") (str.to.re "B")))) (re.++ (str.to.re "M") (re.++ (str.to.re "A") (str.to.re "R")))) (re.++ (str.to.re "A") (re.++ (str.to.re "P") (str.to.re "R")))) (re.++ (str.to.re "M") (re.++ (str.to.re "A") (str.to.re "Y")))) (re.++ (str.to.re "J") (re.++ (str.to.re "U") (str.to.re "N")))) (re.++ (str.to.re "J") (re.++ (str.to.re "U") (str.to.re "L")))) (re.++ (str.to.re "A") (re.++ (str.to.re "U") (str.to.re "G")))) (re.++ (str.to.re "S") (re.++ (str.to.re "E") (str.to.re "P")))) (re.++ (str.to.re "O") (re.++ (str.to.re "C") (str.to.re "T")))) (re.++ (str.to.re "N") (re.++ (str.to.re "O") (str.to.re "V")))) (re.++ (str.to.re "D") (re.++ (str.to.re "E") (str.to.re "C"))))) (re.++ (re.+ (re.union (str.to.re " ") (re.union (str.to.re "\u{0b}") (re.union (str.to.re "\u{0a}") (re.union (str.to.re "\u{0d}") (re.union (str.to.re "\u{09}") (str.to.re "\u{0c}"))))))) (re.++ ((_ re.capture 4) (re.union (re.union (re.++ (re.union (re.++ (str.to.re "") (str.to.re "0")) (str.to.re "")) (re.range "1" "9")) (re.++ (re.range "1" "2") (re.range "0" "9"))) (re.++ (str.to.re "3") (re.union (str.to.re "0") (str.to.re "1"))))) (re.++ (re.+ (re.union (str.to.re " ") (re.union (str.to.re "\u{0b}") (re.union (str.to.re "\u{0a}") (re.union (str.to.re "\u{0d}") (re.union (str.to.re "\u{09}") (str.to.re "\u{0c}"))))))) (re.++ ((_ re.capture 5) (re.union (re.++ (str.to.re "2") (re.range "0" "3")) (re.++ (re.range "0" "1") (re.range "0" "9")))) (re.++ (str.to.re ":") (re.++ ((_ re.capture 6) (re.++ (re.range "0" "5") (re.range "0" "9"))) (re.++ (str.to.re ":") (re.++ ((_ re.capture 7) ((_ re.capture 8) (re.union (re.++ (str.to.re "6") (str.to.re "0")) (re.++ (re.range "0" "5") (re.range "0" "9"))))) (re.++ (re.+ (re.union (str.to.re " ") (re.union (str.to.re "\u{0b}") (re.union (str.to.re "\u{0a}") (re.union (str.to.re "\u{0d}") (re.union (str.to.re "\u{09}") (str.to.re "\u{0c}"))))))) ((_ re.capture 9) (re.union (re.union (re.++ (str.to.re "1") (re.++ (str.to.re "9") (re.++ (re.range "0" "9") (re.range "0" "9")))) (re.++ (re.range "2" "9") (re.++ (re.range "0" "9") (re.++ (re.range "0" "9") (re.range "0" "9"))))) (re.++ (re.range "0" "9") (re.range "0" "9"))))))))))))))))))) re.end-anchor)) (re.++ re.all(re.+ (re.range "a" "z")) re.all) )))
;/[a-z]+/.test(match[1]) == false	
(check-sat)
(get-model)
(pop 1)
(push 1)
(assert (str.in.re var0 (re.* (re.range "\x01" "\xff"))))
(assert (str.in.re var0 (re.++ (re.++ re.begin-anchor ((_ re.capture 1) (re.++ (re.union (str.to.re " ") (re.union (str.to.re "\u{0b}") (re.union (str.to.re "\u{0a}") (re.union (str.to.re "\u{0d}") (re.union (str.to.re "\u{09}") (str.to.re "\u{0c}")))))) (re.++ ((_ re.capture 2) (re.union (re.union (re.union (re.union (re.union (re.union (re.++ (str.to.re "S") (re.++ (str.to.re "U") (str.to.re "N"))) (re.++ (str.to.re "M") (re.++ (str.to.re "O") (str.to.re "N")))) (re.++ (str.to.re "T") (re.++ (str.to.re "U") (str.to.re "E")))) (re.++ (str.to.re "W") (re.++ (str.to.re "E") (str.to.re "D")))) (re.++ (str.to.re "T") (re.++ (str.to.re "H") (str.to.re "U")))) (re.++ (str.to.re "F") (re.++ (str.to.re "R") (str.to.re "I")))) (re.++ (str.to.re "S") (re.++ (str.to.re "A") (str.to.re "T"))))) (re.++ (re.+ (re.union (str.to.re " ") (re.union (str.to.re "\u{0b}") (re.union (str.to.re "\u{0a}") (re.union (str.to.re "\u{0d}") (re.union (str.to.re "\u{09}") (str.to.re "\u{0c}"))))))) (re.++ ((_ re.capture 3) (re.union (re.union (re.union (re.union (re.union (re.union (re.union (re.union (re.union (re.union (re.union (re.++ (str.to.re "J") (re.++ (str.to.re "A") (str.to.re "N"))) (re.++ (str.to.re "F") (re.++ (str.to.re "E") (str.to.re "B")))) (re.++ (str.to.re "M") (re.++ (str.to.re "A") (str.to.re "R")))) (re.++ (str.to.re "A") (re.++ (str.to.re "P") (str.to.re "R")))) (re.++ (str.to.re "M") (re.++ (str.to.re "A") (str.to.re "Y")))) (re.++ (str.to.re "J") (re.++ (str.to.re "U") (str.to.re "N")))) (re.++ (str.to.re "J") (re.++ (str.to.re "U") (str.to.re "L")))) (re.++ (str.to.re "A") (re.++ (str.to.re "U") (str.to.re "G")))) (re.++ (str.to.re "S") (re.++ (str.to.re "E") (str.to.re "P")))) (re.++ (str.to.re "O") (re.++ (str.to.re "C") (str.to.re "T")))) (re.++ (str.to.re "N") (re.++ (str.to.re "O") (str.to.re "V")))) (re.++ (str.to.re "D") (re.++ (str.to.re "E") (str.to.re "C"))))) (re.++ (re.+ (re.union (str.to.re " ") (re.union (str.to.re "\u{0b}") (re.union (str.to.re "\u{0a}") (re.union (str.to.re "\u{0d}") (re.union (str.to.re "\u{09}") (str.to.re "\u{0c}"))))))) (re.++ ((_ re.capture 4) (re.union (re.union (re.++ (re.union (re.++ (str.to.re "") (str.to.re "0")) (str.to.re "")) (re.range "1" "9")) (re.++ (re.range "1" "2") (re.range "0" "9"))) (re.++ (str.to.re "3") (re.union (str.to.re "0") (str.to.re "1"))))) (re.++ (re.+ (re.union (str.to.re " ") (re.union (str.to.re "\u{0b}") (re.union (str.to.re "\u{0a}") (re.union (str.to.re "\u{0d}") (re.union (str.to.re "\u{09}") (str.to.re "\u{0c}"))))))) (re.++ ((_ re.capture 5) (re.union (re.++ (str.to.re "2") (re.range "0" "3")) (re.++ (re.range "0" "1") (re.range "0" "9")))) (re.++ (str.to.re ":") (re.++ ((_ re.capture 6) (re.++ (re.range "0" "5") (re.range "0" "9"))) (re.++ (str.to.re ":") (re.++ ((_ re.capture 7) ((_ re.capture 8) (re.union (re.++ (str.to.re "6") (str.to.re "0")) (re.++ (re.range "0" "5") (re.range "0" "9"))))) (re.++ (re.+ (re.union (str.to.re " ") (re.union (str.to.re "\u{0b}") (re.union (str.to.re "\u{0a}") (re.union (str.to.re "\u{0d}") (re.union (str.to.re "\u{09}") (str.to.re "\u{0c}"))))))) ((_ re.capture 9) (re.union (re.union (re.++ (str.to.re "1") (re.++ (str.to.re "9") (re.++ (re.range "0" "9") (re.range "0" "9")))) (re.++ (re.range "2" "9") (re.++ (re.range "0" "9") (re.++ (re.range "0" "9") (re.range "0" "9"))))) (re.++ (re.range "0" "9") (re.range "0" "9"))))))))))))))))))) re.end-anchor)))	; match!==null
(assert (str.in.re ((_ str.extract 1) var0 (re.++ (re.++ re.begin-anchor ((_ re.capture 1) (re.++ (re.union (str.to.re " ") (re.union (str.to.re "\u{0b}") (re.union (str.to.re "\u{0a}") (re.union (str.to.re "\u{0d}") (re.union (str.to.re "\u{09}") (str.to.re "\u{0c}")))))) (re.++ ((_ re.capture 2) (re.union (re.union (re.union (re.union (re.union (re.union (re.++ (str.to.re "S") (re.++ (str.to.re "U") (str.to.re "N"))) (re.++ (str.to.re "M") (re.++ (str.to.re "O") (str.to.re "N")))) (re.++ (str.to.re "T") (re.++ (str.to.re "U") (str.to.re "E")))) (re.++ (str.to.re "W") (re.++ (str.to.re "E") (str.to.re "D")))) (re.++ (str.to.re "T") (re.++ (str.to.re "H") (str.to.re "U")))) (re.++ (str.to.re "F") (re.++ (str.to.re "R") (str.to.re "I")))) (re.++ (str.to.re "S") (re.++ (str.to.re "A") (str.to.re "T"))))) (re.++ (re.+ (re.union (str.to.re " ") (re.union (str.to.re "\u{0b}") (re.union (str.to.re "\u{0a}") (re.union (str.to.re "\u{0d}") (re.union (str.to.re "\u{09}") (str.to.re "\u{0c}"))))))) (re.++ ((_ re.capture 3) (re.union (re.union (re.union (re.union (re.union (re.union (re.union (re.union (re.union (re.union (re.union (re.++ (str.to.re "J") (re.++ (str.to.re "A") (str.to.re "N"))) (re.++ (str.to.re "F") (re.++ (str.to.re "E") (str.to.re "B")))) (re.++ (str.to.re "M") (re.++ (str.to.re "A") (str.to.re "R")))) (re.++ (str.to.re "A") (re.++ (str.to.re "P") (str.to.re "R")))) (re.++ (str.to.re "M") (re.++ (str.to.re "A") (str.to.re "Y")))) (re.++ (str.to.re "J") (re.++ (str.to.re "U") (str.to.re "N")))) (re.++ (str.to.re "J") (re.++ (str.to.re "U") (str.to.re "L")))) (re.++ (str.to.re "A") (re.++ (str.to.re "U") (str.to.re "G")))) (re.++ (str.to.re "S") (re.++ (str.to.re "E") (str.to.re "P")))) (re.++ (str.to.re "O") (re.++ (str.to.re "C") (str.to.re "T")))) (re.++ (str.to.re "N") (re.++ (str.to.re "O") (str.to.re "V")))) (re.++ (str.to.re "D") (re.++ (str.to.re "E") (str.to.re "C"))))) (re.++ (re.+ (re.union (str.to.re " ") (re.union (str.to.re "\u{0b}") (re.union (str.to.re "\u{0a}") (re.union (str.to.re "\u{0d}") (re.union (str.to.re "\u{09}") (str.to.re "\u{0c}"))))))) (re.++ ((_ re.capture 4) (re.union (re.union (re.++ (re.union (re.++ (str.to.re "") (str.to.re "0")) (str.to.re "")) (re.range "1" "9")) (re.++ (re.range "1" "2") (re.range "0" "9"))) (re.++ (str.to.re "3") (re.union (str.to.re "0") (str.to.re "1"))))) (re.++ (re.+ (re.union (str.to.re " ") (re.union (str.to.re "\u{0b}") (re.union (str.to.re "\u{0a}") (re.union (str.to.re "\u{0d}") (re.union (str.to.re "\u{09}") (str.to.re "\u{0c}"))))))) (re.++ ((_ re.capture 5) (re.union (re.++ (str.to.re "2") (re.range "0" "3")) (re.++ (re.range "0" "1") (re.range "0" "9")))) (re.++ (str.to.re ":") (re.++ ((_ re.capture 6) (re.++ (re.range "0" "5") (re.range "0" "9"))) (re.++ (str.to.re ":") (re.++ ((_ re.capture 7) ((_ re.capture 8) (re.union (re.++ (str.to.re "6") (str.to.re "0")) (re.++ (re.range "0" "5") (re.range "0" "9"))))) (re.++ (re.+ (re.union (str.to.re " ") (re.union (str.to.re "\u{0b}") (re.union (str.to.re "\u{0a}") (re.union (str.to.re "\u{0d}") (re.union (str.to.re "\u{09}") (str.to.re "\u{0c}"))))))) ((_ re.capture 9) (re.union (re.union (re.++ (str.to.re "1") (re.++ (str.to.re "9") (re.++ (re.range "0" "9") (re.range "0" "9")))) (re.++ (re.range "2" "9") (re.++ (re.range "0" "9") (re.++ (re.range "0" "9") (re.range "0" "9"))))) (re.++ (re.range "0" "9") (re.range "0" "9"))))))))))))))))))) re.end-anchor)) (str.to.re "\x00")))
;match[1]==null
(check-sat)
(get-model)
(pop 1)
(push 1)
(assert (str.in.re var0 (re.* (re.range "\x01" "\xff"))))
(assert (not (str.in.re var0 (re.++ (re.++ re.begin-anchor ((_ re.capture 1) (re.++ (re.union (str.to.re " ") (re.union (str.to.re "\u{0b}") (re.union (str.to.re "\u{0a}") (re.union (str.to.re "\u{0d}") (re.union (str.to.re "\u{09}") (str.to.re "\u{0c}")))))) (re.++ ((_ re.capture 2) (re.union (re.union (re.union (re.union (re.union (re.union (re.++ (str.to.re "S") (re.++ (str.to.re "U") (str.to.re "N"))) (re.++ (str.to.re "M") (re.++ (str.to.re "O") (str.to.re "N")))) (re.++ (str.to.re "T") (re.++ (str.to.re "U") (str.to.re "E")))) (re.++ (str.to.re "W") (re.++ (str.to.re "E") (str.to.re "D")))) (re.++ (str.to.re "T") (re.++ (str.to.re "H") (str.to.re "U")))) (re.++ (str.to.re "F") (re.++ (str.to.re "R") (str.to.re "I")))) (re.++ (str.to.re "S") (re.++ (str.to.re "A") (str.to.re "T"))))) (re.++ (re.+ (re.union (str.to.re " ") (re.union (str.to.re "\u{0b}") (re.union (str.to.re "\u{0a}") (re.union (str.to.re "\u{0d}") (re.union (str.to.re "\u{09}") (str.to.re "\u{0c}"))))))) (re.++ ((_ re.capture 3) (re.union (re.union (re.union (re.union (re.union (re.union (re.union (re.union (re.union (re.union (re.union (re.++ (str.to.re "J") (re.++ (str.to.re "A") (str.to.re "N"))) (re.++ (str.to.re "F") (re.++ (str.to.re "E") (str.to.re "B")))) (re.++ (str.to.re "M") (re.++ (str.to.re "A") (str.to.re "R")))) (re.++ (str.to.re "A") (re.++ (str.to.re "P") (str.to.re "R")))) (re.++ (str.to.re "M") (re.++ (str.to.re "A") (str.to.re "Y")))) (re.++ (str.to.re "J") (re.++ (str.to.re "U") (str.to.re "N")))) (re.++ (str.to.re "J") (re.++ (str.to.re "U") (str.to.re "L")))) (re.++ (str.to.re "A") (re.++ (str.to.re "U") (str.to.re "G")))) (re.++ (str.to.re "S") (re.++ (str.to.re "E") (str.to.re "P")))) (re.++ (str.to.re "O") (re.++ (str.to.re "C") (str.to.re "T")))) (re.++ (str.to.re "N") (re.++ (str.to.re "O") (str.to.re "V")))) (re.++ (str.to.re "D") (re.++ (str.to.re "E") (str.to.re "C"))))) (re.++ (re.+ (re.union (str.to.re " ") (re.union (str.to.re "\u{0b}") (re.union (str.to.re "\u{0a}") (re.union (str.to.re "\u{0d}") (re.union (str.to.re "\u{09}") (str.to.re "\u{0c}"))))))) (re.++ ((_ re.capture 4) (re.union (re.union (re.++ (re.union (re.++ (str.to.re "") (str.to.re "0")) (str.to.re "")) (re.range "1" "9")) (re.++ (re.range "1" "2") (re.range "0" "9"))) (re.++ (str.to.re "3") (re.union (str.to.re "0") (str.to.re "1"))))) (re.++ (re.+ (re.union (str.to.re " ") (re.union (str.to.re "\u{0b}") (re.union (str.to.re "\u{0a}") (re.union (str.to.re "\u{0d}") (re.union (str.to.re "\u{09}") (str.to.re "\u{0c}"))))))) (re.++ ((_ re.capture 5) (re.union (re.++ (str.to.re "2") (re.range "0" "3")) (re.++ (re.range "0" "1") (re.range "0" "9")))) (re.++ (str.to.re ":") (re.++ ((_ re.capture 6) (re.++ (re.range "0" "5") (re.range "0" "9"))) (re.++ (str.to.re ":") (re.++ ((_ re.capture 7) ((_ re.capture 8) (re.union (re.++ (str.to.re "6") (str.to.re "0")) (re.++ (re.range "0" "5") (re.range "0" "9"))))) (re.++ (re.+ (re.union (str.to.re " ") (re.union (str.to.re "\u{0b}") (re.union (str.to.re "\u{0a}") (re.union (str.to.re "\u{0d}") (re.union (str.to.re "\u{09}") (str.to.re "\u{0c}"))))))) ((_ re.capture 9) (re.union (re.union (re.++ (str.to.re "1") (re.++ (str.to.re "9") (re.++ (re.range "0" "9") (re.range "0" "9")))) (re.++ (re.range "2" "9") (re.++ (re.range "0" "9") (re.++ (re.range "0" "9") (re.range "0" "9"))))) (re.++ (re.range "0" "9") (re.range "0" "9"))))))))))))))))))) re.end-anchor))))	; match == null
(check-sat)
(get-model)
(pop 1)
(exit)
